CMD:
./solvers/bin/cadical --plain --no-reduce -t 1600 ./data/cnfs//cal33/cal33.4.cnf

c --- [ banner ] -------------------------------------------------------------
c 
c CaDiCaL SAT Solver
c Copyright (c) 2016-2024
c A. Biere, M. Fleury, N. Froleyks, K. Fazekas, F. Pollitt, T. Faller
c JKU Linz, University of Freiburg, TU Wien
c 
c Version 2.1.3 5296d3d2a9bf48c154ab2acb5e44625776d821bf
c g++ (Gentoo 12.3.1_p20230526 p2) 12.3.1 20230526 -Wall -Wextra -O3 -DNDEBUG
c Sat Aug 9 07:26:21 PDT 2025 Linux cedar2.int.cedar.computecanada.ca 5.14.0-362.24.2.el9_3.x86_64 x86_64
c 
c --- [ limit ] --------------------------------------------------------------
c 
c setting time limit to 1600 seconds real time (due to '-t 1600')
c 
c --- [ parsing input ] ------------------------------------------------------
c 
c reading DIMACS file from './data/cnfs//cal33/cal33.4.cnf'
c opening file to read './data/cnfs//cal33/cal33.4.cnf'
c found 'p cnf 23308 63900' header
c parsed 63900 clauses in 0.01 seconds process time
c 
c --- [ options ] ------------------------------------------------------------
c 
c   --compact=false                (different from default 'true')
c   --decompose=false              (different from default 'true')
c   --deduplicate=false            (different from default 'true')
c   --elim=false                   (different from default 'true')
c   --probe=false                  (different from default 'true')
c   --reduce=false                 (different from default 'true')
c   --subsume=false                (different from default 'true')
c   --ternary=false                (different from default 'true')
c   --transred=false               (different from default 'true')
c   --vivify=false                 (different from default 'true')
c 
c --- [ solving ] ------------------------------------------------------------
c 
c time measured in process time since initialization
c 
c  seconds  reductions  redundant  irredundant
c         MB    restarts       trail      variables
c          level   conflicts       glue        remaining
c 
c *  0.01 13  0 0   0    0    0  0% 0 57082 21375 92%
c {  0.01 14  0 0   0    0    0  0% 0 57082 21375 92%
c i  0.01 14  1 0   0    1    0 12% 0 57082 21301 91%
c i  0.01 14 136 0   0    9    7 15% 1 57082 21298 91%
c i  0.02 14 163 0  44  198  185 40% 8 57082 21277 91%
c }  0.05 14 43 0  76 1000  866 35% 7 57082 21276 91%
c [  0.05 14  0 0  76 1000  866  0% 0 57082 21276 91%
c O  0.06 14 224 0  76 1002  868 50% 5 57082 21276 91%
c i  0.06 14 16 0  76 1051  906 30% 4 57082 21273 91%
c i  0.09 14 11 0  76 1561 1289 33% 5 57082 21270 91%
c ]  0.17 15 14 0  77 3002 2482 30% 7 57082 21270 91%
c {  0.17 15 43 0  77 3002 2482 35% 7 57082 21270 91%
c F  0.17 15 43 0  77 3003 2483 35% 7 57082 21270 91%
c i  0.25 15 25 0 135 4624 3725 32% 7 57082 21106 91%
c i  0.25 15 24 0 135 4632 3730 32% 6 57082 21041 90%
c i  0.25 15 24 0 135 4637 3734 32% 6 57082 21022 90%
c i  0.28 15 22 0 136 5330 4296 32% 6 57082 20578 88%
c i  0.28 15 22 0 136 5331 4296 32% 6 57082 20267 87%
c }  0.28 15 22 0 136 5401 4361 32% 6 57082 15284 66%
c 0  0.28 15 22 0 136 5401 4361 32% 6 57082 15284 66%
c 
c --- [ result ] -------------------------------------------------------------
c 
s UNSATISFIABLE
c 
c --- [ run-time profiling ] -------------------------------------------------
c 
c process time taken by individual solving procedures
c (percentage relative to process time for solving)
c 
c         0.27   99.96% search
c         0.15   55.94% unstable
c         0.12   43.53% stable
c         0.01    3.30% parse
c         0.00    0.47% lucky
c         0.00    0.00% simplify
c   =================================
c         0.27   96.64% solve
c 
c last line shows process time for solving
c (percentage relative to total process time)
c 
c --- [ statistics ] ---------------------------------------------------------
c 
c chronological:              2945        54.53 %  of conflicts
c conflicts:                  5401     19839.55    per second
c decisions:                 15367     56447.76    per second
c fixed:                      7961        34.16 %  of all variables
c learned:                    5276        97.69 %  per conflict
c learned_lits:             191218       100.00 %  learned literals
c minimized:                     0         0.00 %  learned literals
c shrunken:                  93955        49.14 %  learned literals
c minishrunken:              33473        17.51 %  learned literals
c otfs:                         11         0.20 %  of conflict
c propagations:            7516178        27.61 M  per second
c rephased:                      2      2700.50    interval
c restarts:                    136        39.71    interval
c stabilizing:                   1        37.07 %  of conflicts
c subsumed:                    904         1.45 %  of all clauses
c strengthened:                 11         0.02 %  of all clauses
c 
c seconds are measured in process time for solving
c 
c --- [ resources ] ----------------------------------------------------------
c 
c total process time since initialization:         0.28    seconds
c total real time since initialization:            0.28    seconds
c maximum resident set size of process:           30.80    MB
c 
c --- [ shutting down ] ------------------------------------------------------
c 
c exit 20
